21
2
10 5
0 0 0 0 0 0 0 0 0 0 0 0 0 0 0 0 0 0 0 0 -1
0 2 1 1 1
0 2 2 2 1
0 2 3 3 1
0 2 4 4 1
0 2 5 5 1
1 1 1 1 124.273
1 1 1 2 -35.0023
1 1 1 3 76.6539
1 1 1 4 27.332
1 1 1 5 -61.3865
1 1 1 6 88.6774
1 1 1 7 -83.062
1 1 1 8 16.5419
1 1 1 9 -20.3089
1 1 1 10 -42.1758
1 2 1 1 1
2 1 1 1 147.335
2 1 1 2 54.4754
2 1 1 3 73.3052
2 1 1 4 -13.5079
2 1 1 5 34.4098
2 1 1 6 -53.2313
2 1 1 7 -58.1725
2 1 1 8 22.8219
2 1 1 9 -76.5774
2 1 1 10 69.1595
2 1 2 2 -70.0046
2 1 2 3 76.6539
2 1 2 4 27.332
2 1 2 5 -61.3865
2 1 2 6 88.6774
2 1 2 7 -83.062
2 1 2 8 16.5419
2 1 2 9 -20.3089
2 1 2 10 -42.1758
2 2 1 2 1
3 1 1 1 151.56
3 1 1 2 -18.6112
3 1 1 3 116.021
3 1 1 4 -87.6454
3 1 1 5 -86.8244
3 1 1 6 61.4354
3 1 1 7 97.0903
3 1 1 8 -38.5015
3 1 1 9 34.7407
3 1 1 10 -16.4176
3 1 2 3 -35.0023
3 1 3 3 153.308
3 1 3 4 27.332
3 1 3 5 -61.3865
3 1 3 6 88.6774
3 1 3 7 -83.062
3 1 3 8 16.5419
3 1 3 9 -20.3089
3 1 3 10 -42.1758
3 2 1 3 1
4 1 1 1 -111.952
4 1 1 2 -87.1461
4 1 1 3 66.374
4 1 1 4 -20.8577
4 1 1 5 21.8844
4 1 1 6 95.9083
4 1 1 7 10.5205
4 1 1 8 64.9712
4 1 1 9 49.7928
4 1 1 10 22.875
4 1 2 4 -35.0023
4 1 3 4 76.6539
4 1 4 4 54.664
4 1 4 5 -61.3865
4 1 4 6 88.6774
4 1 4 7 -83.062
4 1 4 8 16.5419
4 1 4 9 -20.3089
4 1 4 10 -42.1758
4 2 1 4 1
5 1 1 1 143.439
5 1 1 2 -70.8505
5 1 1 3 34.9854
5 1 1 4 -40.5764
5 1 1 5 134.907
5 1 1 6 78.1468
5 1 1 7 93.8168
5 1 1 8 35.729
5 1 1 9 44.5208
5 1 1 10 -89.1773
5 1 2 5 -35.0023
5 1 3 5 76.6539
5 1 4 5 27.332
5 1 5 5 -122.773
5 1 5 6 88.6774
5 1 5 7 -83.062
5 1 5 8 16.5419
5 1 5 9 -20.3089
5 1 5 10 -42.1758
5 2 1 5 1
6 1 1 2 73.6677
6 1 2 2 -15.3221
6 1 2 3 73.3052
6 1 2 4 -13.5079
6 1 2 5 34.4098
6 1 2 6 -53.2313
6 1 2 7 -58.1725
6 1 2 8 22.8219
6 1 2 9 -76.5774
6 1 2 10 69.1595
6 2 2 2 1
7 1 1 2 75.7798
7 1 1 3 73.6677
7 1 2 2 -37.2224
7 1 2 3 46.2235
7 1 2 4 -87.6454
7 1 2 5 -86.8244
7 1 2 6 61.4354
7 1 2 7 97.0903
7 1 2 8 -38.5015
7 1 2 9 34.7407
7 1 2 10 -16.4176
7 1 3 3 146.61
7 1 3 4 -13.5079
7 1 3 5 34.4098
7 1 3 6 -53.2313
7 1 3 7 -58.1725
7 1 3 8 22.8219
7 1 3 9 -76.5774
7 1 3 10 69.1595
7 2 2 3 1
8 1 1 2 -55.976
8 1 1 4 73.6677
8 1 2 2 -174.292
8 1 2 3 66.374
8 1 2 4 -90.6551
8 1 2 5 21.8844
8 1 2 6 95.9083
8 1 2 7 10.5205
8 1 2 8 64.9712
8 1 2 9 49.7928
8 1 2 10 22.875
8 1 3 4 73.3052
8 1 4 4 -27.0159
8 1 4 5 34.4098
8 1 4 6 -53.2313
8 1 4 7 -58.1725
8 1 4 8 22.8219
8 1 4 9 -76.5774
8 1 4 10 69.1595
8 2 2 4 1
9 1 1 2 71.7196
9 1 1 5 73.6677
9 1 2 2 -141.701
9 1 2 3 34.9854
9 1 2 4 -40.5764
9 1 2 5 65.1093
9 1 2 6 78.1468
9 1 2 7 93.8168
9 1 2 8 35.729
9 1 2 9 44.5208
9 1 2 10 -89.1773
9 1 3 5 73.3052
9 1 4 5 -13.5079
9 1 5 5 68.8196
9 1 5 6 -53.2313
9 1 5 7 -58.1725
9 1 5 8 22.8219
9 1 5 9 -76.5774
9 1 5 10 69.1595
9 2 2 5 1
10 1 1 3 75.7798
10 1 2 3 -18.6112
10 1 3 3 107.769
10 1 3 4 -87.6454
10 1 3 5 -86.8244
10 1 3 6 61.4354
10 1 3 7 97.0903
10 1 3 8 -38.5015
10 1 3 9 34.7407
10 1 3 10 -16.4176
10 2 3 3 1
11 1 1 3 -55.976
11 1 1 4 75.7798
11 1 2 3 -87.1461
11 1 2 4 -18.6112
11 1 3 3 132.748
11 1 3 4 -29.1096
11 1 3 5 21.8844
11 1 3 6 95.9083
11 1 3 7 10.5205
11 1 3 8 64.9712
11 1 3 9 49.7928
11 1 3 10 22.875
11 1 4 4 -175.291
11 1 4 5 -86.8244
11 1 4 6 61.4354
11 1 4 7 97.0903
11 1 4 8 -38.5015
11 1 4 9 34.7407
11 1 4 10 -16.4176
11 2 3 4 1
12 1 1 3 71.7196
12 1 1 5 75.7798
12 1 2 3 -70.8505
12 1 2 5 -18.6112
12 1 3 3 69.9708
12 1 3 4 -40.5764
12 1 3 5 126.655
12 1 3 6 78.1468
12 1 3 7 93.8168
12 1 3 8 35.729
12 1 3 9 44.5208
12 1 3 10 -89.1773
12 1 4 5 -87.6454
12 1 5 5 -173.649
12 1 5 6 61.4354
12 1 5 7 97.0903
12 1 5 8 -38.5015
12 1 5 9 34.7407
12 1 5 10 -16.4176
12 2 3 5 1
13 1 1 4 -55.976
13 1 2 4 -87.1461
13 1 3 4 66.374
13 1 4 4 -165.988
13 1 4 5 21.8844
13 1 4 6 95.9083
13 1 4 7 10.5205
13 1 4 8 64.9712
13 1 4 9 49.7928
13 1 4 10 22.875
13 2 4 4 1
14 1 1 4 71.7196
14 1 1 5 -55.976
14 1 2 4 -70.8505
14 1 2 5 -87.1461
14 1 3 4 34.9854
14 1 3 5 66.374
14 1 4 4 -81.1527
14 1 4 5 -10.2237
14 1 4 6 78.1468
14 1 4 7 93.8168
14 1 4 8 35.729
14 1 4 9 44.5208
14 1 4 10 -89.1773
14 1 5 5 43.7687
14 1 5 6 95.9083
14 1 5 7 10.5205
14 1 5 8 64.9712
14 1 5 9 49.7928
14 1 5 10 22.875
14 2 4 5 1
15 1 1 5 71.7196
15 1 2 5 -70.8505
15 1 3 5 34.9854
15 1 4 5 -40.5764
15 1 5 5 145.541
15 1 5 6 78.1468
15 1 5 7 93.8168
15 1 5 8 35.729
15 1 5 9 44.5208
15 1 5 10 -89.1773
15 2 5 5 1
16 1 1 1 -1796.63
16 1 1 2 688.377
16 1 1 3 -2544.38
16 1 1 4 3924.95
16 1 1 5 3207.15
16 1 2 2 -263.751
16 1 2 3 974.877
16 1 2 4 -1503.84
16 1 2 5 -1228.82
16 1 3 3 -3603.34
16 1 3 4 5558.5
16 1 3 5 4541.95
16 1 4 4 -8574.53
16 1 4 5 -7006.4
16 1 5 5 -5725.05
16 1 6 6 1
17 1 1 1 -7613.86
17 1 1 2 7091.95
17 1 1 3 8080.22
17 1 1 4 2555.29
17 1 1 5 -3405.89
17 1 2 2 -6605.82
17 1 2 3 -7526.35
17 1 2 4 -2380.13
17 1 2 5 3172.43
17 1 3 3 -8575.15
17 1 3 4 -2711.8
17 1 3 5 3614.51
17 1 4 4 -857.581
17 1 4 5 1143.05
17 1 5 5 -1523.55
17 1 7 7 1
18 1 1 1 -2457.55
18 1 1 2 3770.24
18 1 1 3 138.551
18 1 1 4 3631.18
18 1 1 5 4931.38
18 1 2 2 -5784.08
18 1 2 3 -212.557
18 1 2 4 -5570.75
18 1 2 5 -7565.45
18 1 3 3 -7.81115
18 1 3 4 -204.717
18 1 3 5 -278.019
18 1 4 4 -5365.29
18 1 4 5 -7286.42
18 1 5 5 -9895.43
18 1 8 8 1
19 1 1 1 -786.558
19 1 1 2 972.724
19 1 1 3 2708.26
19 1 1 4 938.206
19 1 1 5 -857.517
19 1 2 2 -1202.95
19 1 2 3 -3349.26
19 1 2 4 -1160.26
19 1 2 5 1060.48
19 1 3 3 -9325
19 1 3 4 -3230.41
19 1 3 5 2952.58
19 1 4 4 -1119.09
19 1 4 5 1022.85
19 1 5 5 -934.877
19 1 9 9 1
20 1 1 1 -394.085
20 1 1 2 582.864
20 1 1 3 1587.03
20 1 1 4 -1089.46
20 1 1 5 -413.828
20 1 2 2 -862.075
20 1 2 3 -2347.27
20 1 2 4 1611.35
20 1 2 5 612.064
20 1 3 3 -6391.16
20 1 3 4 4387.4
20 1 3 5 1666.53
20 1 4 4 -3011.86
20 1 4 5 -1144.04
20 1 5 5 -434.559
20 1 10 10 1
21 1 1 1 -1
21 1 2 2 -1
21 1 3 3 -1
21 1 4 4 -1
21 1 5 5 -1
21 1 6 6 -1
21 1 7 7 -1
21 1 8 8 -1
21 1 9 9 -1
21 1 10 10 -1
